
Gurobi 9.5.0 (linux64) logging started Fri Nov 26 05:47:49 2021

Set parameter LogFile to value "results/max4cut_numv250/max4cut_numv250_band250_4_RP-MILO_log.txt"
Set parameter LazyConstraints to value 1
Gurobi Optimizer version 9.5.0 build v9.5.0rc5 (linux64)
Thread count: 20 physical cores, 40 logical processors, using up to 10 threads
Optimize a model with 14700 rows, 1235 columns and 44100 nonzeros
Model fingerprint: 0xc35e7cb5
Variable types: 0 continuous, 1235 integer (1235 binary)
Coefficient statistics:
  Matrix range     [1e+00, 1e+00]
  Objective range  [1e+00, 1e+00]
  Bounds range     [1e+00, 1e+00]
  RHS range        [1e+00, 1e+00]
Found heuristic solution: objective 127.0000000
Presolve removed 7320 rows and 0 columns
Presolve time: 0.03s
Presolved: 7380 rows, 1235 columns, 22140 nonzeros
Variable types: 0 continuous, 1235 integer (1235 binary)

Root relaxation: objective 3.382041e+02, 1151 iterations, 0.04 seconds (0.04 work units)

    Nodes    |    Current Node    |     Objective Bounds      |     Work
 Expl Unexpl |  Obj  Depth IntInf | Incumbent    BestBd   Gap | It/Node Time

     0     0  338.20408    0  716  127.00000  338.20408   166%     -    0s
H    0     0                     248.0000000  338.20408  36.4%     -    0s
     0     0  313.60957    0  726  248.00000  313.60957  26.5%     -    0s
H    0     0                     255.0000000  313.60957  23.0%     -    0s
     0     0  309.24164    0  786  255.00000  309.24164  21.3%     -    0s
     0     0  308.77285    0  788  255.00000  308.77285  21.1%     -    0s
     0     0  308.74220    0  792  255.00000  308.74220  21.1%     -    0s
     0     0  308.74208    0  792  255.00000  308.74208  21.1%     -    0s
     0     0  301.62816    0  781  255.00000  301.62816  18.3%     -    0s
H    0     0                     257.0000000  301.62816  17.4%     -    0s
     0     0  301.03196    0  796  257.00000  301.03196  17.1%     -    0s
     0     0  300.99898    0  795  257.00000  300.99898  17.1%     -    0s
     0     0  300.99821    0  795  257.00000  300.99821  17.1%     -    0s
     0     0  297.64138    0  802  257.00000  297.64138  15.8%     -    1s
H    0     0                     263.0000000  297.64138  13.2%     -    1s
     0     0  297.17314    0  845  263.00000  297.17314  13.0%     -    1s
     0     0  297.14491    0  839  263.00000  297.14491  13.0%     -    1s
     0     0  297.14174    0  842  263.00000  297.14174  13.0%     -    1s
     0     0  295.56784    0  864  263.00000  295.56784  12.4%     -    1s
     0     0  295.27004    0  879  263.00000  295.27004  12.3%     -    1s
     0     0  295.22030    0  882  263.00000  295.22030  12.3%     -    1s
     0     0  295.20894    0  885  263.00000  295.20894  12.2%     -    1s
     0     0  294.37156    0  831  263.00000  294.37156  11.9%     -    1s
H    0     0                     269.0000000  294.37156  9.43%     -    1s
     0     0  294.33272    0  838  269.00000  294.33272  9.42%     -    1s
     0     0  294.32429    0  833  269.00000  294.32429  9.41%     -    1s
     0     0  293.85722    0  828  269.00000  293.85722  9.24%     -    1s
     0     0  293.84691    0  834  269.00000  293.84691  9.24%     -    1s
     0     0  293.55919    0  804  269.00000  293.55919  9.13%     -    1s
H    0     0                     274.0000000  293.55919  7.14%     -    1s
     0     0  293.54358    0  777  274.00000  293.54358  7.13%     -    1s
     0     0  293.22917    0  805  274.00000  293.22917  7.02%     -    1s
     0     0  293.20041    0  806  274.00000  293.20041  7.01%     -    1s
     0     0  293.20041    0  808  274.00000  293.20041  7.01%     -    1s
     0     0  292.90097    0  694  274.00000  292.90097  6.90%     -    1s
H    0     0                     277.0000000  292.90097  5.74%     -    1s
     0     0  292.86157    0  714  277.00000  292.86157  5.73%     -    1s
     0     0  292.85737    0  697  277.00000  292.85737  5.72%     -    2s
     0     0  292.71298    0  744  277.00000  292.71298  5.67%     -    2s
H    0     0                     278.0000000  292.71298  5.29%     -    2s
     0     0  292.67371    0  760  278.00000  292.67371  5.28%     -    2s
     0     0  292.67315    0  742  278.00000  292.67315  5.28%     -    2s
     0     0  292.60271    0  534  278.00000  292.60271  5.25%     -    2s
H    0     0                     283.0000000  292.60271  3.39%     -    2s
H    0     0                     288.0000000  292.60271  1.60%     -    2s
     0     0  292.59459    0  538  288.00000  292.59459  1.60%     -    2s
     0     0  292.54669    0  552  288.00000  292.54669  1.58%     -    2s
     0     0  292.54669    0  558  288.00000  292.54669  1.58%     -    2s
     0     0  292.39312    0  762  288.00000  292.39312  1.53%     -    2s
     0     0  292.39312    0  762  288.00000  292.39312  1.53%     -    2s
H    0     0                     290.0000000  292.39312  0.83%     -    2s
H    0     0                     291.0000000  292.39312  0.48%     -    2s
     0     0  292.39312    0  714  291.00000  292.39312  0.48%     -    2s
     0     0  292.39312    0  751  291.00000  292.39312  0.48%     -    3s
     0     0  292.39312    0  748  291.00000  292.39312  0.48%     -    3s
     0     0  292.37149    0  532  291.00000  292.37149  0.47%     -    3s
     0     0  292.37044    0  790  291.00000  292.37044  0.47%     -    3s
     0     0  292.33326    0  298  291.00000  292.33326  0.46%     -    3s
     0     0  292.33325    0  297  291.00000  292.33325  0.46%     -    3s
     0     0  292.33317    0  288  291.00000  292.33317  0.46%     -    3s
     0     0  292.33317    0  288  291.00000  292.33317  0.46%     -    3s
H    0     0                     292.0000000  292.33317  0.11%     -    3s
     0     0  292.33317    0  288  292.00000  292.33317  0.11%     -    3s

Cutting planes:
  Gomory: 5
  Clique: 2
  MIR: 306
  Zero half: 271
  RLT: 97
  BQP: 3

Explored 1 nodes (15631 simplex iterations) in 3.87 seconds (3.19 work units)
Thread count was 10 (of 40 available processors)

Solution count 10: 292 291 290 ... 263

Optimal solution found (tolerance 0.00e+00)
Best objective 2.920000000000e+02, best bound 2.920000000000e+02, gap 0.0000%

User-callback calls 1352, time in user-callback 0.13 sec
